50
11003

577 97
393 978
112 965
239 527
242 752
461 312
150 74
427 969
556 508
195 863
12 858
312 200
970 819
36 831
133 19
579 71
388 675
60 635
753 870
853 797
567 16
264 925
789 335
957 850
422 628
413 971
817 560
919 709
712 808
477 750
370 38
398 486
445 652
278 540
92 12
882 996
568 451
41 42
716 435
852 110
325 608
864 931
210 674
944 189
615 983
28 585
762 785
685 21
599 878
748 294
